NAME : block_42.689567.tour
COMMENT : Length = 689567
COMMENT : Found by LKH-3 [Keld Helsgaun] Wed Apr 22 15:48:09 2026
TYPE : TOUR
DIMENSION : 194
TOUR_SECTION
179
170
158
144
132
120
108
96
84
66
47
31
18
9
3
4
5
11
10
19
32
48
67
85
97
109
121
122
110
111
99
98
86
68
49
33
20
21
34
50
69
87
88
100
112
124
123
135
146
134
133
145
159
2
194
1
147
148
160
149
161
171
180
172
162
150
136
137
151
163
173
181
187
188
182
174
164
152
138
126
125
113
101
89
77
76
75
74
73
72
71
70
51
52
53
54
35
36
55
56
37
22
38
57
58
39
23
24
40
59
60
41
25
12
13
26
42
61
79
78
90
91
103
102
114
115
127
139
153
165
175
183
189
192
193
190
184
176
166
154
140
128
116
104
92
80
62
43
27
14
6
15
28
44
63
81
93
105
117
129
141
155
167
177
185
191
186
178
168
156
142
130
118
106
94
82
64
45
29
16
7
8
17
30
46
65
83
95
107
119
131
143
157
169
-1
EOF
